24, 833
894, 417
1147, 191
907, 368
573, 199
802, 338
392, 401
272, 353
1048, 184
1196, 281
1056, 317
1063, 161
849, 140
1210, 177
529, 490
309, 193
1012, 338
688, 196
346, 225
537, 385
448, 398
517, 292
354, 217
947, 129
1193, 274